400
300 300
1 240 697
2 240 236
3 239 875
4 239 584
5 237 915
6 237 315
7 237 184
8 236 41
9 235 230
10 235 448
11 235 804
12 235 162
13 234 11
14 233 535
15 233 555
16 233 387
17 232 403
18 232 316
19 232 344
20 231 405
21 231 216
22 231 495
23 230 661
24 230 770
25 229 521
26 228 99
27 228 140
28 228 512
29 228 947
30 228 605
31 228 444
32 227 327
33 227 47
34 226 505
35 226 426
36 226 702
37 225 819
38 225 364
39 225 700
40 224 319
41 224 541
42 224 570
43 223 83
44 223 954
45 222 399
46 222 636
47 222 611
48 221 41
49 221 890
50 221 370
51 221 88
52 221 249
53 220 622
54 220 511
55 220 960
56 219 149
57 219 676
58 218 985
59 218 664
60 218 967
61 218 250
62 218 5
63 218 632
64 217 367
65 217 456
66 216 563
67 216 140
68 215 85
69 214 366
70 214 293
71 214 875
72 214 401
73 213 550
74 213 279
75 212 412
76 211 35
77 211 43
78 211 497
79 211 166
80 210 370
81 210 488
82 209 775
83 209 974
84 209 864
85 208 73
86 208 404
87 208 859
88 206 311
89 206 801
90 206 17
91 205 645
92 204 541
93 203 955
94 203 833
95 203 674
96 203 721
97 202 700
98 201 823
99 201 546
100 201 169
101 200 773
102 200 230
103 199 539
104 198 132
105 197 745
106 196 259
107 195 334
108 195 689
109 195 774
110 194 324
111 194 517
112 193 739
113 193 168
114 192 36
115 192 962
116 191 67
117 191 499
118 190 907
119 190 17
120 190 253
121 190 895
122 190 36
123 189 896
124 189 382
125 188 565
126 188 596
127 187 299
128 187 690
129 186 567
130 186 999
131 186 467
132 185 236
133 185 630
134 185 958
135 184 787
136 184 450
137 184 290
138 183 400
139 183 769
140 182 451
141 182 236
142 182 137
143 181 212
144 180 879
145 180 986
146 180 826
147 178 582
148 176 245
149 176 726
150 176 798
151 174 469
152 173 997
153 172 374
154 172 557
155 171 652
156 171 651
157 171 634
158 170 579
159 168 101
160 166 186
161 165 666
162 165 363
163 164 742
164 164 643
165 163 960
166 163 727
167 163 859
168 162 751
169 162 251
170 162 732
171 162 542
172 161 679
173 161 768
174 160 826
175 159 258
176 159 86
177 158 698
178 158 555
179 157 110
180 157 479
181 157 945
182 156 97
183 155 820
184 155 99
185 155 732
186 154 479
187 154 335
188 153 934
189 152 535
190 152 271
191 151 231
192 151 487
193 151 686
194 151 323
195 151 603
196 151 233
197 150 141
198 150 259
199 150 664
200 150 974
201 150 787
202 149 672
203 149 920
204 149 299
205 149 190
206 148 351
207 148 412
208 147 185
209 147 137
210 145 491
211 145 177
212 144 796
213 143 684
214 142 187
215 142 271
216 142 133
217 142 565
218 141 565
219 141 795
220 141 347
221 140 65
222 139 373
223 139 149
224 139 571
225 137 764
226 137 20
227 137 303
228 136 279
229 135 671
230 135 38
231 135 160
232 135 242
233 135 185
234 134 114
235 133 241
236 133 489
237 132 479
238 132 276
239 131 18
240 131 945
241 131 395
242 131 501
243 130 844
244 130 395
245 130 94
246 129 94
247 129 625
248 129 308
249 128 915
250 128 729
251 128 101
252 127 249
253 125 70
254 124 130
255 123 171
256 123 970
257 121 529
258 121 509
259 120 543
260 119 711
261 117 398
262 117 19
263 117 774
264 116 235
265 116 552
266 116 573
267 116 917
268 115 889
269 115 45
270 114 989
271 113 975
272 113 653
273 112 842
274 112 407
275 112 437
276 111 275
277 111 19
278 109 622
279 109 883
280 108 615
281 108 155
282 108 655
283 107 167
284 106 165
285 106 326
286 106 388
287 105 868
288 105 440
289 105 769
290 105 133
291 105 577
292 104 723
293 104 66
294 103 912
295 103 326
296 103 933
297 102 58
298 102 292
299 101 615
300 101 942
301 101 250
302 101 775
303 100 788
304 100 828
305 99 115
306 99 640
307 99 815
308 98 539
309 98 523
310 97 983
311 97 958
312 97 582
313 97 510
314 97 782
315 96 416
316 96 85
317 95 227
318 95 437
319 93 521
320 92 442
321 91 484
322 91 713
323 91 25
324 91 430
325 91 747
326 90 812
327 90 988
328 90 762
329 89 818
330 89 377
331 89 622
332 88 739
333 87 622
334 87 453
335 86 904
336 86 630
337 85 856
338 85 263
339 85 478
340 84 355
341 84 23
342 84 546
343 83 776
344 82 470
345 81 882
346 80 816
347 80 765
348 79 180
349 79 913
350 79 603
351 79 27
352 79 549
353 79 971
354 78 419
355 77 7
356 77 536
357 77 574
358 76 470
359 76 949
360 76 395
361 75 223
362 75 998
363 74 867
364 74 913
365 74 453
366 72 637
367 72 49
368 72 914
369 72 775
370 71 306
371 71 511
372 71 245
373 70 699
374 69 352
375 69 59
376 69 518
377 69 882
378 69 635
379 68 471
380 68 125
381 67 420
382 67 88
383 67 453
384 66 673
385 66 143
386 66 816
387 65 51
388 65 596
389 65 296
390 65 375
391 65 492
392 65 222
393 64 295
394 63 352
395 62 810
396 61 917
397 60 314
398 60 535
399 60 690
400 60 145
